algorithms_of_dicrete_optimalisation/L4-max_flow/matching_4_2.lp
\* MaxFlowProblem *\
Maximize
Max_Flow: f_0_1 + f_0_10 + f_0_11 + f_0_12 + f_0_13 + f_0_14 + f_0_15 + f_0_16
 + f_0_2 + f_0_3 + f_0_4 + f_0_5 + f_0_6 + f_0_7 + f_0_8 + f_0_9
Subject To
Conservation_1: f_0_1 - f_1_21 - f_1_24 = 0
Conservation_10: f_0_10 - f_10_21 - f_10_27 = 0
Conservation_11: f_0_11 - f_11_23 - f_11_26 = 0
Conservation_12: f_0_12 - f_12_28 - f_12_32 = 0
Conservation_13: f_0_13 - f_13_20 - f_13_22 = 0
Conservation_14: f_0_14 - f_14_22 - f_14_32 = 0
Conservation_15: f_0_15 - f_15_23 - f_15_24 = 0
Conservation_16: f_0_16 - f_16_17 - f_16_26 = 0
Conservation_17: f_16_17 - f_17_33 = 0
Conservation_18: - f_18_33 + f_4_18 + f_9_18 = 0
Conservation_19: - f_19_33 = 0
Conservation_2: f_0_2 - f_2_20 - f_2_27 = 0
Conservation_20: f_13_20 - f_20_33 + f_2_20 + f_3_20 + f_9_20 = 0
Conservation_21: f_10_21 + f_1_21 - f_21_33 + f_7_21 = 0
Conservation_22: f_13_22 + f_14_22 - f_22_33 = 0
Conservation_23: f_11_23 + f_15_23 - f_23_33 + f_6_23 + f_8_23 = 0
Conservation_24: f_15_24 + f_1_24 - f_24_33 = 0
Conservation_25: - f_25_33 = 0
Conservation_26: f_11_26 + f_16_26 - f_26_33 + f_7_26 + f_8_26 = 0
Conservation_27: f_10_27 - f_27_33 + f_2_27 + f_6_27 = 0
Conservation_28: f_12_28 - f_28_33 + f_4_28 = 0
Conservation_29: - f_29_33 + f_5_29 = 0
Conservation_3: f_0_3 - f_3_20 - f_3_32 = 0
Conservation_30: - f_30_33 = 0
Conservation_31: - f_31_33 = 0
Conservation_32: f_12_32 + f_14_32 - f_32_33 + f_3_32 + f_5_32 = 0
Conservation_4: f_0_4 - f_4_18 - f_4_28 = 0
Conservation_5: f_0_5 - f_5_29 - f_5_32 = 0
Conservation_6: f_0_6 - f_6_23 - f_6_27 = 0
Conservation_7: f_0_7 - f_7_21 - f_7_26 = 0
Conservation_8: f_0_8 - f_8_23 - f_8_26 = 0
Conservation_9: f_0_9 - f_9_18 - f_9_20 = 0
Bounds
 f_0_1 <= 1
 f_0_10 <= 1
 f_0_11 <= 1
 f_0_12 <= 1
 f_0_13 <= 1
 f_0_14 <= 1
 f_0_15 <= 1
 f_0_16 <= 1
 f_0_2 <= 1
 f_0_3 <= 1
 f_0_4 <= 1
 f_0_5 <= 1
 f_0_6 <= 1
 f_0_7 <= 1
 f_0_8 <= 1
 f_0_9 <= 1
 f_10_21 <= 1
 f_10_27 <= 1
 f_11_23 <= 1
 f_11_26 <= 1
 f_12_28 <= 1
 f_12_32 <= 1
 f_13_20 <= 1
 f_13_22 <= 1
 f_14_22 <= 1
 f_14_32 <= 1
 f_15_23 <= 1
 f_15_24 <= 1
 f_16_17 <= 1
 f_16_26 <= 1
 f_17_33 <= 1
 f_18_33 <= 1
 f_19_33 <= 1
 f_1_21 <= 1
 f_1_24 <= 1
 f_20_33 <= 1
 f_21_33 <= 1
 f_22_33 <= 1
 f_23_33 <= 1
 f_24_33 <= 1
 f_25_33 <= 1
 f_26_33 <= 1
 f_27_33 <= 1
 f_28_33 <= 1
 f_29_33 <= 1
 f_2_20 <= 1
 f_2_27 <= 1
 f_30_33 <= 1
 f_31_33 <= 1
 f_32_33 <= 1
 f_3_20 <= 1
 f_3_32 <= 1
 f_4_18 <= 1
 f_4_28 <= 1
 f_5_29 <= 1
 f_5_32 <= 1
 f_6_23 <= 1
 f_6_27 <= 1
 f_7_21 <= 1
 f_7_26 <= 1
 f_8_23 <= 1
 f_8_26 <= 1
 f_9_18 <= 1
 f_9_20 <= 1
End
