algorithms_of_dicrete_optimalisation/L4-max_flow/matching_4_2.lp.out
Problem:    
Rows:       32
Columns:    64
Non-zeros:  96
Status:     OPTIMAL
Objective:  Max_Flow = 12 (MAXimum)

   No.   Row name   St   Activity     Lower bound   Upper bound    Marginal
------ ------------ -- ------------- ------------- ------------- -------------
     1 Conservation_1
                    NS             0             0             =             1 
     2 Conservation_10
                    NS             0             0             =             1 
     3 Conservation_11
                    NS             0             0             =             1 
     4 Conservation_12
                    NS             0             0             =             1 
     5 Conservation_13
                    NS             0             0             =             1 
     6 Conservation_14
                    NS             0             0             =             1 
     7 Conservation_15
                    NS             0             0             =             1 
     8 Conservation_16
                    NS             0             0             =         < eps
     9 Conservation_17
                    NS             0             0             =         < eps
    10 Conservation_18
                    NS             0             0             =             1 
    11 Conservation_19
                    NS             0             0             =         < eps
    12 Conservation_2
                    NS             0             0             =             1 
    13 Conservation_20
                    NS             0             0             =             1 
    14 Conservation_21
                    NS             0             0             =             1 
    15 Conservation_22
                    NS             0             0             =             1 
    16 Conservation_23
                    NS             0             0             =             1 
    17 Conservation_24
                    NS             0             0             =             1 
    18 Conservation_25
                    NS             0             0             =         < eps
    19 Conservation_26
                    NS             0             0             =             1 
    20 Conservation_27
                    NS             0             0             =             1 
    21 Conservation_28
                    NS             0             0             =             1 
    22 Conservation_29
                    NS             0             0             =         < eps
    23 Conservation_3
                    NS             0             0             =             1 
    24 Conservation_30
                    NS             0             0             =         < eps
    25 Conservation_31
                    NS             0             0             =         < eps
    26 Conservation_32
                    NS             0             0             =             1 
    27 Conservation_4
                    NS             0             0             =             1 
    28 Conservation_5
                    NS             0             0             =             1 
    29 Conservation_6
                    NS             0             0             =             1 
    30 Conservation_7
                    NS             0             0             =             1 
    31 Conservation_8
                    NS             0             0             =             1 
    32 Conservation_9
                    NS             0             0             =             1 

   No. Column name  St   Activity     Lower bound   Upper bound    Marginal
------ ------------ -- ------------- ------------- ------------- -------------
     1 f_0_1        NU             1             0             1         < eps
     2 f_0_10       B              1             0             1 
     3 f_0_11       NU             1             0             1         < eps
     4 f_0_12       NU             1             0             1         < eps
     5 f_0_13       NU             1             0             1         < eps
     6 f_0_14       NU             1             0             1         < eps
     7 f_0_15       B              1             0             1 
     8 f_0_16       NU             1             0             1             1 
     9 f_0_2        B              0             0             1 
    10 f_0_3        B              1             0             1 
    11 f_0_4        B              1             0             1 
    12 f_0_5        B              1             0             1 
    13 f_0_6        B              0             0             1 
    14 f_0_7        B              1             0             1 
    15 f_0_8        B              0             0             1 
    16 f_0_9        B              0             0             1 
    17 f_1_21       B              1             0             1 
    18 f_1_24       B              0             0             1 
    19 f_10_21      B              0             0             1 
    20 f_10_27      NU             1             0             1         < eps
    21 f_11_23      NU             1             0             1         < eps
    22 f_11_26      B              0             0             1 
    23 f_12_28      NU             1             0             1         < eps
    24 f_12_32      B              0             0             1 
    25 f_13_20      B              1             0             1 
    26 f_13_22      B              0             0             1 
    27 f_14_22      NU             1             0             1         < eps
    28 f_14_32      B              0             0             1 
    29 f_15_23      B              0             0             1 
    30 f_15_24      NU             1             0             1         < eps
    31 f_16_17      B              1             0             1 
    32 f_16_26      NL             0             0             1            -1 
    33 f_17_33      B              1             0             1 
    34 f_18_33      NU             1             0             1             1 
    35 f_4_18       NU             1             0             1         < eps
    36 f_9_18       B              0             0             1 
    37 f_19_33      B              0             0             1 
    38 f_2_20       B              0             0             1 
    39 f_2_27       B              0             0             1 
    40 f_20_33      NU             1             0             1             1 
    41 f_3_20       NL             0             0             1         < eps
    42 f_9_20       NL             0             0             1         < eps
    43 f_21_33      NU             1             0             1             1 
    44 f_7_21       NL             0             0             1         < eps
    45 f_22_33      NU             1             0             1             1 
    46 f_23_33      NU             1             0             1             1 
    47 f_6_23       NL             0             0             1         < eps
    48 f_8_23       NL             0             0             1         < eps
    49 f_24_33      NU             1             0             1             1 
    50 f_25_33      B              0             0             1 
    51 f_26_33      NU             1             0             1             1 
    52 f_7_26       B              1             0             1 
    53 f_8_26       NL             0             0             1         < eps
    54 f_27_33      NU             1             0             1             1 
    55 f_6_27       NL             0             0             1         < eps
    56 f_28_33      NU             1             0             1             1 
    57 f_4_28       B              0             0             1 
    58 f_29_33      B              1             0             1 
    59 f_5_29       NU             1             0             1             1 
    60 f_3_32       NU             1             0             1         < eps
    61 f_30_33      B              0             0             1 
    62 f_31_33      B              0             0             1 
    63 f_32_33      NU             1             0             1             1 
    64 f_5_32       B              0             0             1 

Karush-Kuhn-Tucker optimality conditions:

KKT.PE: max.abs.err = 0.00e+00 on row 0
        max.rel.err = 0.00e+00 on row 0
        High quality

KKT.PB: max.abs.err = 0.00e+00 on row 0
        max.rel.err = 0.00e+00 on row 0
        High quality

KKT.DE: max.abs.err = 0.00e+00 on column 0
        max.rel.err = 0.00e+00 on column 0
        High quality

KKT.DB: max.abs.err = 0.00e+00 on row 0
        max.rel.err = 0.00e+00 on row 0
        High quality

End of output
